
Gurobi 12.0.2 (mac64[arm]) logging started Mon Jun 16 00:35:42 2025

Set parameter LogFile to value "/Users/yurunfeng/Documents/GitHub/LRGTS-store-location/result/gurobi/snyder/15nodes/15-0.95-5.log"
Gurobi Optimizer version 12.0.2 build v12.0.2rc0 (mac64[arm] - Darwin 24.5.0 24F74)

CPU model: Apple M4
Thread count: 10 physical cores, 10 logical processors, using up to 10 threads

Non-default parameters:
TimeLimit  1200

Optimize a model with 540 rows, 1215 columns and 4575 nonzeros
Model fingerprint: 0x888ec59f
Variable types: 0 continuous, 1215 integer (1215 binary)
Coefficient statistics:
  Matrix range     [1e+00, 1e+00]
  Objective range  [6e-02, 3e+06]
  Bounds range     [1e+00, 1e+00]
  RHS range        [1e+00, 1e+00]
Found heuristic solution: objective 1.648316e+07
Presolve removed 45 rows and 240 columns
Presolve time: 0.01s
Presolved: 495 rows, 975 columns, 3960 nonzeros
Variable types: 0 continuous, 975 integer (975 binary)

Root relaxation: objective 6.570554e+05, 430 iterations, 0.00 seconds (0.00 work units)

    Nodes    |    Current Node    |     Objective Bounds      |     Work
 Expl Unexpl |  Obj  Depth IntInf | Incumbent    BestBd   Gap | It/Node Time

*    0     0               0    657055.42656 657055.427  0.00%     -    0s

Explored 1 nodes (430 simplex iterations) in 0.01 seconds (0.02 work units)
Thread count was 10 (of 10 available processors)

Solution count 2: 657055 1.64832e+07 

Optimal solution found (tolerance 1.00e-04)
Best objective 6.570554265555e+05, best bound 6.570554265555e+05, gap 0.0000%
